5 5
2 9 1 88 3 5 4 27 0 84
4 47 3 62 0 45 1 66 2 23
4 98 3 61 0 93 1 43 2 35
3 30 2 67 0 10 4 56 1 34
0 65 2 6 1 70 4 43 3 16
-1
0 3 4 5
0 1 2 3 5
0 1 2 5
0 2 3 5
0 2 4 5
-2
116 141 260
67 168 238 331
129 184 465
148 166 216
92 194 288

383 6
20 7 17 12 4
1 22 8 13 19
0 21 16 9 14
15 6 2 11 24
5 10 23 18 3
